13
1 5
2 1
3 6
4 5
5 2
6 9
7 4
8 10
9 8
10 8
11 7
12 6
39
0 1 22
1 0 22
0 2 70
2 0 70
0 3 74
3 0 74
0 4 21
4 0 21
0 5 36
5 0 36
0 6 72
6 0 72
0 7 93
7 0 93
0 8 83
8 0 83
0 9 3
9 0 3
0 10 91
10 0 91
0 11 93
11 0 93
0 12 52
12 0 52
1 4 5
2 6 16
2 8 31
2 10 78
2 11 72
3 4 73
3 11 4
4 9 94
4 10 22
4 12 26
5 8 37
5 10 62
5 11 24
5 12 29
7 12 100
